p cnf 150 756
1 -58 0
1 -59 0
58 -58 0
59 -59 0
20 -64 0
20 -65 0
64 -64 0
65 -65 0
39 -70 0
39 -71 0
70 -70 0
71 -71 0
2 -58 0
2 -59 0
58 -58 0
59 -59 0
21 -64 0
21 -65 0
64 -64 0
65 -65 0
40 -70 0
40 -71 0
70 -70 0
71 -71 0
3 -58 0
3 -59 0
58 -58 0
59 -59 0
22 -64 0
22 -65 0
64 -64 0
65 -65 0
41 -70 0
41 -71 0
70 -70 0
71 -71 0
4 -76 -58 0
-4 76 -58 0
4 76 -59 0
-4 -76 -59 0
23 -76 -64 0
-23 76 -64 0
23 76 -65 0
-23 -76 -65 0
42 -76 -70 0
-42 76 -70 0
42 76 -71 0
-42 -76 -71 0
5 -77 -58 0
-5 77 -58 0
5 77 -59 0
-5 -77 -59 0
24 -77 -64 0
-24 77 -64 0
24 77 -65 0
-24 -77 -65 0
43 -77 -70 0
-43 77 -70 0
43 77 -71 0
-43 -77 -71 0
6 -58 0
6 -59 0
58 -58 0
59 -59 0
25 -64 0
25 -65 0
64 -64 0
65 -65 0
44 -70 0
44 -71 0
70 -70 0
71 -71 0
7 -58 0
7 -59 0
58 -58 0
59 -59 0
26 -64 0
26 -65 0
64 -64 0
65 -65 0
45 -70 0
45 -71 0
70 -70 0
71 -71 0
8 -78 -58 0
-8 78 -58 0
8 78 -59 0
-8 -78 -59 0
27 -78 -64 0
-27 78 -64 0
27 78 -65 0
-27 -78 -65 0
46 -78 -70 0
-46 78 -70 0
46 78 -71 0
-46 -78 -71 0
9 -79 -58 0
-9 79 -58 0
9 79 -59 0
-9 -79 -59 0
28 -79 -64 0
-28 79 -64 0
28 79 -65 0
-28 -79 -65 0
47 -79 -70 0
-47 79 -70 0
47 79 -71 0
-47 -79 -71 0
10 -80 -58 0
-10 80 -58 0
10 80 -59 0
-10 -80 -59 0
29 -80 -64 0
-29 80 -64 0
29 80 -65 0
-29 -80 -65 0
48 -80 -70 0
-48 80 -70 0
48 80 -71 0
-48 -80 -71 0
11 -58 0
11 -59 0
58 -58 0
59 -59 0
30 -64 0
30 -65 0
64 -64 0
65 -65 0
49 -70 0
49 -71 0
70 -70 0
71 -71 0
12 -58 0
12 -59 0
58 -58 0
59 -59 0
31 -64 0
31 -65 0
64 -64 0
65 -65 0
50 -70 0
50 -71 0
70 -70 0
71 -71 0
13 -58 0
13 -59 0
58 -58 0
59 -59 0
32 -64 0
32 -65 0
64 -64 0
65 -65 0
51 -70 0
51 -71 0
70 -70 0
71 -71 0
14 -58 0
14 -59 0
58 -58 0
59 -59 0
33 -64 0
33 -65 0
64 -64 0
65 -65 0
52 -70 0
52 -71 0
70 -70 0
71 -71 0
15 -81 -58 0
-15 81 -58 0
15 81 -59 0
-15 -81 -59 0
34 -81 -64 0
-34 81 -64 0
34 81 -65 0
-34 -81 -65 0
53 -81 -70 0
-53 81 -70 0
53 81 -71 0
-53 -81 -71 0
16 -58 0
16 -59 0
58 -58 0
59 -59 0
35 -64 0
35 -65 0
64 -64 0
65 -65 0
54 -70 0
54 -71 0
70 -70 0
71 -71 0
17 -58 0
17 -59 0
58 -58 0
59 -59 0
36 -64 0
36 -65 0
64 -64 0
65 -65 0
55 -70 0
55 -71 0
70 -70 0
71 -71 0
-18 -58 0
-18 -59 0
58 -58 0
59 -59 0
-37 -64 0
-37 -65 0
64 -64 0
65 -65 0
-56 -70 0
-56 -71 0
70 -70 0
71 -71 0
-19 -58 0
-19 -59 0
58 -58 0
59 -59 0
-38 -64 0
-38 -65 0
64 -64 0
65 -65 0
-57 -70 0
-57 -71 0
70 -70 0
71 -71 0
-133 58 0
133 -58 0
-134 59 0
133 -59 0
-133 -58 0
-134 -59 0
-139 58 133 0
139 -58 0
139 -133 0
-140 59 134 0
140 -59 0
140 -134 0
-139 -64 0
-140 -65 0
-145 64 139 0
145 -64 0
145 -139 0
-146 65 140 0
146 -65 0
146 -140 0
-145 -70 0
-146 -71 0
145 0
146 0
1 -60 0
1 -61 0
60 -60 0
61 -61 0
20 -66 0
20 -67 0
66 -66 0
67 -67 0
39 -72 0
39 -73 0
72 -72 0
73 -73 0
2 -60 0
2 -61 0
60 -60 0
61 -61 0
21 -66 0
21 -67 0
66 -66 0
67 -67 0
40 -72 0
40 -73 0
72 -72 0
73 -73 0
3 -60 0
3 -61 0
60 -60 0
61 -61 0
22 -66 0
22 -67 0
66 -66 0
67 -67 0
41 -72 0
41 -73 0
72 -72 0
73 -73 0
4 -82 -60 0
-4 82 -60 0
4 82 -61 0
-4 -82 -61 0
23 -82 -66 0
-23 82 -66 0
23 82 -67 0
-23 -82 -67 0
42 -82 -72 0
-42 82 -72 0
42 82 -73 0
-42 -82 -73 0
5 -83 -60 0
-5 83 -60 0
5 83 -61 0
-5 -83 -61 0
24 -83 -66 0
-24 83 -66 0
24 83 -67 0
-24 -83 -67 0
43 -83 -72 0
-43 83 -72 0
43 83 -73 0
-43 -83 -73 0
6 -60 0
6 -61 0
60 -60 0
61 -61 0
25 -66 0
25 -67 0
66 -66 0
67 -67 0
44 -72 0
44 -73 0
72 -72 0
73 -73 0
7 -60 0
7 -61 0
60 -60 0
61 -61 0
26 -66 0
26 -67 0
66 -66 0
67 -67 0
45 -72 0
45 -73 0
72 -72 0
73 -73 0
8 -84 -60 0
-8 84 -60 0
8 84 -61 0
-8 -84 -61 0
27 -84 -66 0
-27 84 -66 0
27 84 -67 0
-27 -84 -67 0
46 -84 -72 0
-46 84 -72 0
46 84 -73 0
-46 -84 -73 0
9 -85 -60 0
-9 85 -60 0
9 85 -61 0
-9 -85 -61 0
28 -85 -66 0
-28 85 -66 0
28 85 -67 0
-28 -85 -67 0
47 -85 -72 0
-47 85 -72 0
47 85 -73 0
-47 -85 -73 0
10 -86 -60 0
-10 86 -60 0
10 86 -61 0
-10 -86 -61 0
29 -86 -66 0
-29 86 -66 0
29 86 -67 0
-29 -86 -67 0
48 -86 -72 0
-48 86 -72 0
48 86 -73 0
-48 -86 -73 0
11 -60 0
11 -61 0
60 -60 0
61 -61 0
30 -66 0
30 -67 0
66 -66 0
67 -67 0
49 -72 0
49 -73 0
72 -72 0
73 -73 0
12 -60 0
12 -61 0
60 -60 0
61 -61 0
31 -66 0
31 -67 0
66 -66 0
67 -67 0
50 -72 0
50 -73 0
72 -72 0
73 -73 0
13 -60 0
13 -61 0
60 -60 0
61 -61 0
32 -66 0
32 -67 0
66 -66 0
67 -67 0
51 -72 0
51 -73 0
72 -72 0
73 -73 0
14 -60 0
14 -61 0
60 -60 0
61 -61 0
33 -66 0
33 -67 0
66 -66 0
67 -67 0
52 -72 0
52 -73 0
72 -72 0
73 -73 0
15 -87 -60 0
-15 87 -60 0
15 87 -61 0
-15 -87 -61 0
34 -87 -66 0
-34 87 -66 0
34 87 -67 0
-34 -87 -67 0
53 -87 -72 0
-53 87 -72 0
53 87 -73 0
-53 -87 -73 0
16 -60 0
16 -61 0
60 -60 0
61 -61 0
35 -66 0
35 -67 0
66 -66 0
67 -67 0
54 -72 0
54 -73 0
72 -72 0
73 -73 0
17 -60 0
17 -61 0
60 -60 0
61 -61 0
36 -66 0
36 -67 0
66 -66 0
67 -67 0
55 -72 0
55 -73 0
72 -72 0
73 -73 0
18 -88 -60 0
-18 88 -60 0
18 88 -61 0
-18 -88 -61 0
37 -88 -66 0
-37 88 -66 0
37 88 -67 0
-37 -88 -67 0
56 -88 -72 0
-56 88 -72 0
56 88 -73 0
-56 -88 -73 0
19 -89 -60 0
-19 89 -60 0
19 89 -61 0
-19 -89 -61 0
38 -89 -66 0
-38 89 -66 0
38 89 -67 0
-38 -89 -67 0
57 -89 -72 0
-57 89 -72 0
57 89 -73 0
-57 -89 -73 0
-135 60 0
135 -60 0
-136 61 0
135 -61 0
-135 -60 0
-136 -61 0
-141 60 135 0
141 -60 0
141 -135 0
-142 61 136 0
142 -61 0
142 -136 0
-141 -66 0
-142 -67 0
-147 66 141 0
147 -66 0
147 -141 0
-148 67 142 0
148 -67 0
148 -142 0
-147 -72 0
-148 -73 0
147 0
148 0
1 -62 0
1 -63 0
62 -62 0
63 -63 0
20 -68 0
20 -69 0
68 -68 0
69 -69 0
39 -74 0
39 -75 0
74 -74 0
75 -75 0
2 -62 0
2 -63 0
62 -62 0
63 -63 0
21 -68 0
21 -69 0
68 -68 0
69 -69 0
40 -74 0
40 -75 0
74 -74 0
75 -75 0
3 -62 0
3 -63 0
62 -62 0
63 -63 0
22 -68 0
22 -69 0
68 -68 0
69 -69 0
41 -74 0
41 -75 0
74 -74 0
75 -75 0
4 -90 -62 0
-4 90 -62 0
4 90 -63 0
-4 -90 -63 0
23 -90 -68 0
-23 90 -68 0
23 90 -69 0
-23 -90 -69 0
42 -90 -74 0
-42 90 -74 0
42 90 -75 0
-42 -90 -75 0
-5 -62 0
-5 -63 0
62 -62 0
63 -63 0
-24 -68 0
-24 -69 0
68 -68 0
69 -69 0
-43 -74 0
-43 -75 0
74 -74 0
75 -75 0
6 -62 0
6 -63 0
62 -62 0
63 -63 0
25 -68 0
25 -69 0
68 -68 0
69 -69 0
44 -74 0
44 -75 0
74 -74 0
75 -75 0
7 -91 -62 0
-7 91 -62 0
7 91 -63 0
-7 -91 -63 0
26 -91 -68 0
-26 91 -68 0
26 91 -69 0
-26 -91 -69 0
45 -91 -74 0
-45 91 -74 0
45 91 -75 0
-45 -91 -75 0
8 -62 0
8 -63 0
62 -62 0
63 -63 0
27 -68 0
27 -69 0
68 -68 0
69 -69 0
46 -74 0
46 -75 0
74 -74 0
75 -75 0
-9 -62 0
-9 -63 0
62 -62 0
63 -63 0
-28 -68 0
-28 -69 0
68 -68 0
69 -69 0
-47 -74 0
-47 -75 0
74 -74 0
75 -75 0
10 -62 0
10 -63 0
62 -62 0
63 -63 0
29 -68 0
29 -69 0
68 -68 0
69 -69 0
48 -74 0
48 -75 0
74 -74 0
75 -75 0
11 -62 0
11 -63 0
62 -62 0
63 -63 0
30 -68 0
30 -69 0
68 -68 0
69 -69 0
49 -74 0
49 -75 0
74 -74 0
75 -75 0
12 -62 0
12 -63 0
62 -62 0
63 -63 0
31 -68 0
31 -69 0
68 -68 0
69 -69 0
50 -74 0
50 -75 0
74 -74 0
75 -75 0
13 -62 0
13 -63 0
62 -62 0
63 -63 0
32 -68 0
32 -69 0
68 -68 0
69 -69 0
51 -74 0
51 -75 0
74 -74 0
75 -75 0
14 -92 -62 0
-14 92 -62 0
14 92 -63 0
-14 -92 -63 0
33 -92 -68 0
-33 92 -68 0
33 92 -69 0
-33 -92 -69 0
52 -92 -74 0
-52 92 -74 0
52 92 -75 0
-52 -92 -75 0
15 -62 0
15 -63 0
62 -62 0
63 -63 0
34 -68 0
34 -69 0
68 -68 0
69 -69 0
53 -74 0
53 -75 0
74 -74 0
75 -75 0
16 -62 0
16 -63 0
62 -62 0
63 -63 0
35 -68 0
35 -69 0
68 -68 0
69 -69 0
54 -74 0
54 -75 0
74 -74 0
75 -75 0
17 -93 -62 0
-17 93 -62 0
17 93 -63 0
-17 -93 -63 0
36 -93 -68 0
-36 93 -68 0
36 93 -69 0
-36 -93 -69 0
55 -93 -74 0
-55 93 -74 0
55 93 -75 0
-55 -93 -75 0
18 -94 -62 0
-18 94 -62 0
18 94 -63 0
-18 -94 -63 0
37 -94 -68 0
-37 94 -68 0
37 94 -69 0
-37 -94 -69 0
56 -94 -74 0
-56 94 -74 0
56 94 -75 0
-56 -94 -75 0
19 -95 -62 0
-19 95 -62 0
19 95 -63 0
-19 -95 -63 0
38 -95 -68 0
-38 95 -68 0
38 95 -69 0
-38 -95 -69 0
57 -95 -74 0
-57 95 -74 0
57 95 -75 0
-57 -95 -75 0
-137 62 0
137 -62 0
-138 63 0
137 -63 0
-137 -62 0
-138 -63 0
-143 62 137 0
143 -62 0
143 -137 0
-144 63 138 0
144 -63 0
144 -138 0
-143 -68 0
-144 -69 0
-149 68 143 0
149 -68 0
149 -143 0
-150 69 144 0
150 -69 0
150 -144 0
-149 -74 0
-150 -75 0
149 0
150 0
